21, 137
1, 17, 29
2, 21, 20
3, 31, 30
4, 30, 25
5, 23, 31
6, 19, 26
7, 26, 24
8, 34, 33
9, 32, 21
10, 35, 18
11, 20, 23
12, 16, 27
13, 22, 35
14, 18, 32
15, 29, 22
16, 28, 34
17, 24, 15
18, 27, 17
19, 25, 28
20, 33, 16
21, 15, 19